c Generated from Nested-Unit Petri Net model NUPN2/3759.nupn
c (C) 2020 Pierre Bouvier and Hubert Garavel at INRIA Grenoble Rhône-Alpes
c Produced by the CONVECS research team (http://convecs.inria.fr)
c Licensed under CC-BY Creative Commons Attribution 4.0 International License
c (license terms available from http://creativecommons.org/licenses/by/4.0)
p cnf 400 1580
1 0
11 12 0
21 22 23 0
31 32 33 34 0
41 42 43 44 45 0
51 52 53 54 55 56 0
61 62 63 64 65 66 67 0
71 72 73 74 75 76 77 78 0
81 82 83 84 85 86 87 88 89 0
91 92 93 94 95 96 97 98 99 100 0
101 102 103 104 105 106 107 108 109 110 0
111 112 113 114 115 116 117 118 119 120 0
121 122 123 124 125 126 127 128 129 130 0
131 132 133 134 135 136 137 138 139 140 0
141 142 143 144 145 146 147 148 149 150 0
151 152 153 154 155 156 157 158 159 160 0
161 162 163 164 165 166 167 168 169 170 0
171 172 173 174 175 176 177 178 179 180 0
181 182 183 184 185 186 187 188 189 190 0
191 192 193 194 195 196 197 198 199 200 0
201 202 203 204 205 206 207 208 209 210 0
211 212 213 214 215 216 217 218 219 220 0
221 222 223 224 225 226 227 228 229 230 0
231 232 233 234 235 236 237 238 239 240 0
241 242 243 244 245 246 247 248 249 250 0
251 252 253 254 255 256 257 258 259 260 0
261 262 263 264 265 266 267 268 269 270 0
271 272 273 274 275 276 277 278 279 280 0
281 282 283 284 285 286 287 288 289 290 0
291 292 293 294 295 296 297 298 299 300 0
301 302 303 304 305 306 307 308 309 310 0
311 312 313 314 315 316 317 318 319 320 0
321 322 323 324 325 326 327 328 329 330 0
331 332 333 334 335 336 337 338 339 340 0
341 342 343 344 345 346 347 348 349 350 0
351 352 353 354 355 356 357 358 359 360 0
361 362 363 364 365 366 367 368 369 370 0
371 372 373 374 375 376 377 378 379 380 0
381 382 383 384 385 386 387 388 389 390 0
391 392 393 394 395 396 397 398 399 400 0
-71 -131 0
-72 -132 0
-73 -133 0
-74 -134 0
-75 -135 0
-76 -136 0
-77 -137 0
-78 -138 0
-79 -139 0
-80 -140 0
-1 -351 0
-2 -352 0
-3 -353 0
-4 -354 0
-5 -355 0
-6 -356 0
-7 -357 0
-8 -358 0
-9 -359 0
-10 -360 0
-251 -351 0
-252 -352 0
-253 -353 0
-254 -354 0
-255 -355 0
-256 -356 0
-257 -357 0
-258 -358 0
-259 -359 0
-260 -360 0
-231 -351 0
-232 -352 0
-233 -353 0
-234 -354 0
-235 -355 0
-236 -356 0
-237 -357 0
-238 -358 0
-239 -359 0
-240 -360 0
-1 -181 0
-2 -182 0
-3 -183 0
-4 -184 0
-5 -185 0
-6 -186 0
-7 -187 0
-8 -188 0
-9 -189 0
-10 -190 0
-1 -21 0
-2 -22 0
-3 -23 0
-4 -24 0
-5 -25 0
-6 -26 0
-7 -27 0
-8 -28 0
-9 -29 0
-10 -30 0
-321 -341 0
-322 -342 0
-323 -343 0
-324 -344 0
-325 -345 0
-326 -346 0
-327 -347 0
-328 -348 0
-329 -349 0
-330 -350 0
-211 -271 0
-212 -272 0
-213 -273 0
-214 -274 0
-215 -275 0
-216 -276 0
-217 -277 0
-218 -278 0
-219 -279 0
-220 -280 0
-231 -291 0
-232 -292 0
-233 -293 0
-234 -294 0
-235 -295 0
-236 -296 0
-237 -297 0
-238 -298 0
-239 -299 0
-240 -300 0
-71 -141 0
-72 -142 0
-73 -143 0
-74 -144 0
-75 -145 0
-76 -146 0
-77 -147 0
-78 -148 0
-79 -149 0
-80 -150 0
-1 -361 0
-2 -362 0
-3 -363 0
-4 -364 0
-5 -365 0
-6 -366 0
-7 -367 0
-8 -368 0
-9 -369 0
-10 -370 0
-181 -351 0
-182 -352 0
-183 -353 0
-184 -354 0
-185 -355 0
-186 -356 0
-187 -357 0
-188 -358 0
-189 -359 0
-190 -360 0
-241 -281 0
-242 -282 0
-243 -283 0
-244 -284 0
-245 -285 0
-246 -286 0
-247 -287 0
-248 -288 0
-249 -289 0
-250 -290 0
-261 -291 0
-262 -292 0
-263 -293 0
-264 -294 0
-265 -295 0
-266 -296 0
-267 -297 0
-268 -298 0
-269 -299 0
-270 -300 0
-1 -221 0
-2 -222 0
-3 -223 0
-4 -224 0
-5 -225 0
-6 -226 0
-7 -227 0
-8 -228 0
-9 -229 0
-10 -230 0
-141 -161 0
-142 -162 0
-143 -163 0
-144 -164 0
-145 -165 0
-146 -166 0
-147 -167 0
-148 -168 0
-149 -169 0
-150 -170 0
-231 -261 0
-232 -262 0
-233 -263 0
-234 -264 0
-235 -265 0
-236 -266 0
-237 -267 0
-238 -268 0
-239 -269 0
-240 -270 0
-1 -31 0
-2 -32 0
-3 -33 0
-4 -34 0
-5 -35 0
-6 -36 0
-7 -37 0
-8 -38 0
-9 -39 0
-10 -40 0
-191 -331 0
-192 -332 0
-193 -333 0
-194 -334 0
-195 -335 0
-196 -336 0
-197 -337 0
-198 -338 0
-199 -339 0
-200 -340 0
-241 -251 0
-242 -252 0
-243 -253 0
-244 -254 0
-245 -255 0
-246 -256 0
-247 -257 0
-248 -258 0
-249 -259 0
-250 -260 0
-201 -321 0
-202 -322 0
-203 -323 0
-204 -324 0
-205 -325 0
-206 -326 0
-207 -327 0
-208 -328 0
-209 -329 0
-210 -330 0
-1 -271 0
-2 -272 0
-3 -273 0
-4 -274 0
-5 -275 0
-6 -276 0
-7 -277 0
-8 -278 0
-9 -279 0
-10 -280 0
-211 -311 0
-212 -312 0
-213 -313 0
-214 -314 0
-215 -315 0
-216 -316 0
-217 -317 0
-218 -318 0
-219 -319 0
-220 -320 0
-221 -331 0
-222 -332 0
-223 -333 0
-224 -334 0
-225 -335 0
-226 -336 0
-227 -337 0
-228 -338 0
-229 -339 0
-230 -340 0
-181 -331 0
-182 -332 0
-183 -333 0
-184 -334 0
-185 -335 0
-186 -336 0
-187 -337 0
-188 -338 0
-189 -339 0
-190 -340 0
-81 -171 0
-82 -172 0
-83 -173 0
-84 -174 0
-85 -175 0
-86 -176 0
-87 -177 0
-88 -178 0
-89 -179 0
-90 -180 0
-231 -271 0
-232 -272 0
-233 -273 0
-234 -274 0
-235 -275 0
-236 -276 0
-237 -277 0
-238 -278 0
-239 -279 0
-240 -280 0
-221 -341 0
-222 -342 0
-223 -343 0
-224 -344 0
-225 -345 0
-226 -346 0
-227 -347 0
-228 -348 0
-229 -349 0
-230 -350 0
-251 -331 0
-252 -332 0
-253 -333 0
-254 -334 0
-255 -335 0
-256 -336 0
-257 -337 0
-258 -338 0
-259 -339 0
-260 -340 0
-241 -311 0
-242 -312 0
-243 -313 0
-244 -314 0
-245 -315 0
-246 -316 0
-247 -317 0
-248 -318 0
-249 -319 0
-250 -320 0
-1 -131 0
-2 -132 0
-3 -133 0
-4 -134 0
-5 -135 0
-6 -136 0
-7 -137 0
-8 -138 0
-9 -139 0
-10 -140 0
-261 -321 0
-262 -322 0
-263 -323 0
-264 -324 0
-265 -325 0
-266 -326 0
-267 -327 0
-268 -328 0
-269 -329 0
-270 -330 0
-1 -231 0
-2 -232 0
-3 -233 0
-4 -234 0
-5 -235 0
-6 -236 0
-7 -237 0
-8 -238 0
-9 -239 0
-10 -240 0
-1 -81 0
-2 -82 0
-3 -83 0
-4 -84 0
-5 -85 0
-6 -86 0
-7 -87 0
-8 -88 0
-9 -89 0
-10 -90 0
-191 -301 0
-192 -302 0
-193 -303 0
-194 -304 0
-195 -305 0
-196 -306 0
-197 -307 0
-198 -308 0
-199 -309 0
-200 -310 0
-71 -101 0
-72 -102 0
-73 -103 0
-74 -104 0
-75 -105 0
-76 -106 0
-77 -107 0
-78 -108 0
-79 -109 0
-80 -110 0
-81 -111 0
-82 -112 0
-83 -113 0
-84 -114 0
-85 -115 0
-86 -116 0
-87 -117 0
-88 -118 0
-89 -119 0
-90 -120 0
-221 -281 0
-222 -282 0
-223 -283 0
-224 -284 0
-225 -285 0
-226 -286 0
-227 -287 0
-228 -288 0
-229 -289 0
-230 -290 0
-1 -311 0
-2 -312 0
-3 -313 0
-4 -314 0
-5 -315 0
-6 -316 0
-7 -317 0
-8 -318 0
-9 -319 0
-10 -320 0
-211 -321 0
-212 -322 0
-213 -323 0
-214 -324 0
-215 -325 0
-216 -326 0
-217 -327 0
-218 -328 0
-219 -329 0
-220 -330 0
-181 -271 0
-182 -272 0
-183 -273 0
-184 -274 0
-185 -275 0
-186 -276 0
-187 -277 0
-188 -278 0
-189 -279 0
-190 -280 0
-81 -121 0
-82 -122 0
-83 -123 0
-84 -124 0
-85 -125 0
-86 -126 0
-87 -127 0
-88 -128 0
-89 -129 0
-90 -130 0
-231 -311 0
-232 -312 0
-233 -313 0
-234 -314 0
-235 -315 0
-236 -316 0
-237 -317 0
-238 -318 0
-239 -319 0
-240 -320 0
-261 -341 0
-262 -342 0
-263 -343 0
-264 -344 0
-265 -345 0
-266 -346 0
-267 -347 0
-268 -348 0
-269 -349 0
-270 -350 0
-251 -271 0
-252 -272 0
-253 -273 0
-254 -274 0
-255 -275 0
-256 -276 0
-257 -277 0
-258 -278 0
-259 -279 0
-260 -280 0
-241 -341 0
-242 -342 0
-243 -343 0
-244 -344 0
-245 -345 0
-246 -346 0
-247 -347 0
-248 -348 0
-249 -349 0
-250 -350 0
-1 -141 0
-2 -142 0
-3 -143 0
-4 -144 0
-5 -145 0
-6 -146 0
-7 -147 0
-8 -148 0
-9 -149 0
-10 -150 0
-261 -311 0
-262 -312 0
-263 -313 0
-264 -314 0
-265 -315 0
-266 -316 0
-267 -317 0
-268 -318 0
-269 -319 0
-270 -320 0
-1 -91 0
-2 -92 0
-3 -93 0
-4 -94 0
-5 -95 0
-6 -96 0
-7 -97 0
-8 -98 0
-9 -99 0
-10 -100 0
-331 -351 0
-332 -352 0
-333 -353 0
-334 -354 0
-335 -355 0
-336 -356 0
-337 -357 0
-338 -358 0
-339 -359 0
-340 -360 0
-1 -321 0
-2 -322 0
-3 -323 0
-4 -324 0
-5 -325 0
-6 -326 0
-7 -327 0
-8 -328 0
-9 -329 0
-10 -330 0
-371 -391 0
-372 -392 0
-373 -393 0
-374 -394 0
-375 -395 0
-376 -396 0
-377 -397 0
-378 -398 0
-379 -399 0
-380 -400 0
-321 -351 0
-322 -352 0
-323 -353 0
-324 -354 0
-325 -355 0
-326 -356 0
-327 -357 0
-328 -358 0
-329 -359 0
-330 -360 0
-71 -151 0
-72 -152 0
-73 -153 0
-74 -154 0
-75 -155 0
-76 -156 0
-77 -157 0
-78 -158 0
-79 -159 0
-80 -160 0
-1 -371 0
-2 -372 0
-3 -373 0
-4 -374 0
-5 -375 0
-6 -376 0
-7 -377 0
-8 -378 0
-9 -379 0
-10 -380 0
-261 -281 0
-262 -282 0
-263 -283 0
-264 -284 0
-265 -285 0
-266 -286 0
-267 -287 0
-268 -288 0
-269 -289 0
-270 -290 0
-1 -191 0
-2 -192 0
-3 -193 0
-4 -194 0
-5 -195 0
-6 -196 0
-7 -197 0
-8 -198 0
-9 -199 0
-10 -200 0
-141 -171 0
-142 -172 0
-143 -173 0
-144 -174 0
-145 -175 0
-146 -176 0
-147 -177 0
-148 -178 0
-149 -179 0
-150 -180 0
-1 -41 0
-2 -42 0
-3 -43 0
-4 -44 0
-5 -45 0
-6 -46 0
-7 -47 0
-8 -48 0
-9 -49 0
-10 -50 0
-191 -341 0
-192 -342 0
-193 -343 0
-194 -344 0
-195 -345 0
-196 -346 0
-197 -347 0
-198 -348 0
-199 -349 0
-200 -350 0
-201 -311 0
-202 -312 0
-203 -313 0
-204 -314 0
-205 -315 0
-206 -316 0
-207 -317 0
-208 -318 0
-209 -319 0
-210 -320 0
-221 -321 0
-222 -322 0
-223 -323 0
-224 -324 0
-225 -325 0
-226 -326 0
-227 -327 0
-228 -328 0
-229 -329 0
-230 -330 0
-211 -281 0
-212 -282 0
-213 -283 0
-214 -284 0
-215 -285 0
-216 -286 0
-217 -287 0
-218 -288 0
-219 -289 0
-220 -290 0
-181 -301 0
-182 -302 0
-183 -303 0
-184 -304 0
-185 -305 0
-186 -306 0
-187 -307 0
-188 -308 0
-189 -309 0
-190 -310 0
-81 -161 0
-82 -162 0
-83 -163 0
-84 -164 0
-85 -165 0
-86 -166 0
-87 -167 0
-88 -168 0
-89 -169 0
-90 -170 0
-71 -161 0
-72 -162 0
-73 -163 0
-74 -164 0
-75 -165 0
-76 -166 0
-77 -167 0
-78 -168 0
-79 -169 0
-80 -170 0
-1 -381 0
-2 -382 0
-3 -383 0
-4 -384 0
-5 -385 0
-6 -386 0
-7 -387 0
-8 -388 0
-9 -389 0
-10 -390 0
-251 -301 0
-252 -302 0
-253 -303 0
-254 -304 0
-255 -305 0
-256 -306 0
-257 -307 0
-258 -308 0
-259 -309 0
-260 -310 0
-241 -301 0
-242 -302 0
-243 -303 0
-244 -304 0
-245 -305 0
-246 -306 0
-247 -307 0
-248 -308 0
-249 -309 0
-250 -310 0
-1 -241 0
-2 -242 0
-3 -243 0
-4 -244 0
-5 -245 0
-6 -246 0
-7 -247 0
-8 -248 0
-9 -249 0
-10 -250 0
-1 -51 0
-2 -52 0
-3 -53 0
-4 -54 0
-5 -55 0
-6 -56 0
-7 -57 0
-8 -58 0
-9 -59 0
-10 -60 0
-191 -311 0
-192 -312 0
-193 -313 0
-194 -314 0
-195 -315 0
-196 -316 0
-197 -317 0
-198 -318 0
-199 -319 0
-200 -320 0
-71 -111 0
-72 -112 0
-73 -113 0
-74 -114 0
-75 -115 0
-76 -116 0
-77 -117 0
-78 -118 0
-79 -119 0
-80 -120 0
-211 -341 0
-212 -342 0
-213 -343 0
-214 -344 0
-215 -345 0
-216 -346 0
-217 -347 0
-218 -348 0
-219 -349 0
-220 -350 0
-201 -271 0
-202 -272 0
-203 -273 0
-204 -274 0
-205 -275 0
-206 -276 0
-207 -277 0
-208 -278 0
-209 -279 0
-210 -280 0
-81 -101 0
-82 -102 0
-83 -103 0
-84 -104 0
-85 -105 0
-86 -106 0
-87 -107 0
-88 -108 0
-89 -109 0
-90 -110 0
-1 -281 0
-2 -282 0
-3 -283 0
-4 -284 0
-5 -285 0
-6 -286 0
-7 -287 0
-8 -288 0
-9 -289 0
-10 -290 0
-221 -311 0
-222 -312 0
-223 -313 0
-224 -314 0
-225 -315 0
-226 -316 0
-227 -317 0
-228 -318 0
-229 -319 0
-230 -320 0
-211 -331 0
-212 -332 0
-213 -333 0
-214 -334 0
-215 -335 0
-216 -336 0
-217 -337 0
-218 -338 0
-219 -339 0
-220 -340 0
-81 -151 0
-82 -152 0
-83 -153 0
-84 -154 0
-85 -155 0
-86 -156 0
-87 -157 0
-88 -158 0
-89 -159 0
-90 -160 0
-231 -321 0
-232 -322 0
-233 -323 0
-234 -324 0
-235 -325 0
-236 -326 0
-237 -327 0
-238 -328 0
-239 -329 0
-240 -330 0
-241 -331 0
-242 -332 0
-243 -333 0
-244 -334 0
-245 -335 0
-246 -336 0
-247 -337 0
-248 -338 0
-249 -339 0
-250 -340 0
-1 -151 0
-2 -152 0
-3 -153 0
-4 -154 0
-5 -155 0
-6 -156 0
-7 -157 0
-8 -158 0
-9 -159 0
-10 -160 0
-261 -301 0
-262 -302 0
-263 -303 0
-264 -304 0
-265 -305 0
-266 -306 0
-267 -307 0
-268 -308 0
-269 -309 0
-270 -310 0
-1 -251 0
-2 -252 0
-3 -253 0
-4 -254 0
-5 -255 0
-6 -256 0
-7 -257 0
-8 -258 0
-9 -259 0
-10 -260 0
-361 -381 0
-362 -382 0
-363 -383 0
-364 -384 0
-365 -385 0
-366 -386 0
-367 -387 0
-368 -388 0
-369 -389 0
-370 -390 0
-191 -281 0
-192 -282 0
-193 -283 0
-194 -284 0
-195 -285 0
-196 -286 0
-197 -287 0
-198 -288 0
-199 -289 0
-200 -290 0
-201 -291 0
-202 -292 0
-203 -293 0
-204 -294 0
-205 -295 0
-206 -296 0
-207 -297 0
-208 -298 0
-209 -299 0
-210 -300 0
-331 -341 0
-332 -342 0
-333 -343 0
-334 -344 0
-335 -345 0
-336 -346 0
-337 -347 0
-338 -348 0
-339 -349 0
-340 -350 0
-151 -171 0
-152 -172 0
-153 -173 0
-154 -174 0
-155 -175 0
-156 -176 0
-157 -177 0
-158 -178 0
-159 -179 0
-160 -180 0
-221 -271 0
-222 -272 0
-223 -273 0
-224 -274 0
-225 -275 0
-226 -276 0
-227 -277 0
-228 -278 0
-229 -279 0
-230 -280 0
-1 -331 0
-2 -332 0
-3 -333 0
-4 -334 0
-5 -335 0
-6 -336 0
-7 -337 0
-8 -338 0
-9 -339 0
-10 -340 0
-181 -281 0
-182 -282 0
-183 -283 0
-184 -284 0
-185 -285 0
-186 -286 0
-187 -287 0
-188 -288 0
-189 -289 0
-190 -290 0
-251 -281 0
-252 -282 0
-253 -283 0
-254 -284 0
-255 -285 0
-256 -286 0
-257 -287 0
-258 -288 0
-259 -289 0
-260 -290 0
-1 -161 0
-2 -162 0
-3 -163 0
-4 -164 0
-5 -165 0
-6 -166 0
-7 -167 0
-8 -168 0
-9 -169 0
-10 -170 0
-1 -11 0
-2 -12 0
-3 -13 0
-4 -14 0
-5 -15 0
-6 -16 0
-7 -17 0
-8 -18 0
-9 -19 0
-10 -20 0
-1 -101 0
-2 -102 0
-3 -103 0
-4 -104 0
-5 -105 0
-6 -106 0
-7 -107 0
-8 -108 0
-9 -109 0
-10 -110 0
-371 -381 0
-372 -382 0
-373 -383 0
-374 -384 0
-375 -385 0
-376 -386 0
-377 -387 0
-378 -388 0
-379 -389 0
-380 -390 0
-201 -351 0
-202 -352 0
-203 -353 0
-204 -354 0
-205 -355 0
-206 -356 0
-207 -357 0
-208 -358 0
-209 -359 0
-210 -360 0
-71 -121 0
-72 -122 0
-73 -123 0
-74 -124 0
-75 -125 0
-76 -126 0
-77 -127 0
-78 -128 0
-79 -129 0
-80 -130 0
-1 -341 0
-2 -342 0
-3 -343 0
-4 -344 0
-5 -345 0
-6 -346 0
-7 -347 0
-8 -348 0
-9 -349 0
-10 -350 0
-251 -341 0
-252 -342 0
-253 -343 0
-254 -344 0
-255 -345 0
-256 -346 0
-257 -347 0
-258 -348 0
-259 -349 0
-260 -350 0
-241 -271 0
-242 -272 0
-243 -273 0
-244 -274 0
-245 -275 0
-246 -276 0
-247 -277 0
-248 -278 0
-249 -279 0
-250 -280 0
-231 -341 0
-232 -342 0
-233 -343 0
-234 -344 0
-235 -345 0
-236 -346 0
-237 -347 0
-238 -348 0
-239 -349 0
-240 -350 0
-1 -201 0
-2 -202 0
-3 -203 0
-4 -204 0
-5 -205 0
-6 -206 0
-7 -207 0
-8 -208 0
-9 -209 0
-10 -210 0
-191 -351 0
-192 -352 0
-193 -353 0
-194 -354 0
-195 -355 0
-196 -356 0
-197 -357 0
-198 -358 0
-199 -359 0
-200 -360 0
-201 -301 0
-202 -302 0
-203 -303 0
-204 -304 0
-205 -305 0
-206 -306 0
-207 -307 0
-208 -308 0
-209 -309 0
-210 -310 0
-211 -291 0
-212 -292 0
-213 -293 0
-214 -294 0
-215 -295 0
-216 -296 0
-217 -297 0
-218 -298 0
-219 -299 0
-220 -300 0
-181 -311 0
-182 -312 0
-183 -313 0
-184 -314 0
-185 -315 0
-186 -316 0
-187 -317 0
-188 -318 0
-189 -319 0
-190 -320 0
-231 -281 0
-232 -282 0
-233 -283 0
-234 -284 0
-235 -285 0
-236 -286 0
-237 -287 0
-238 -288 0
-239 -289 0
-240 -290 0
-71 -171 0
-72 -172 0
-73 -173 0
-74 -174 0
-75 -175 0
-76 -176 0
-77 -177 0
-78 -178 0
-79 -179 0
-80 -180 0
-1 -391 0
-2 -392 0
-3 -393 0
-4 -394 0
-5 -395 0
-6 -396 0
-7 -397 0
-8 -398 0
-9 -399 0
-10 -400 0
-181 -341 0
-182 -342 0
-183 -343 0
-184 -344 0
-185 -345 0
-186 -346 0
-187 -347 0
-188 -348 0
-189 -349 0
-190 -350 0
-251 -311 0
-252 -312 0
-253 -313 0
-254 -314 0
-255 -315 0
-256 -316 0
-257 -317 0
-258 -318 0
-259 -319 0
-260 -320 0
-241 -291 0
-242 -292 0
-243 -293 0
-244 -294 0
-245 -295 0
-246 -296 0
-247 -297 0
-248 -298 0
-249 -299 0
-250 -300 0
-261 -271 0
-262 -272 0
-263 -273 0
-264 -274 0
-265 -275 0
-266 -276 0
-267 -277 0
-268 -278 0
-269 -279 0
-270 -280 0
-1 -211 0
-2 -212 0
-3 -213 0
-4 -214 0
-5 -215 0
-6 -216 0
-7 -217 0
-8 -218 0
-9 -219 0
-10 -220 0
-231 -251 0
-232 -252 0
-233 -253 0
-234 -254 0
-235 -255 0
-236 -256 0
-237 -257 0
-238 -258 0
-239 -259 0
-240 -260 0
-1 -61 0
-2 -62 0
-3 -63 0
-4 -64 0
-5 -65 0
-6 -66 0
-7 -67 0
-8 -68 0
-9 -69 0
-10 -70 0
-191 -321 0
-192 -322 0
-193 -323 0
-194 -324 0
-195 -325 0
-196 -326 0
-197 -327 0
-198 -328 0
-199 -329 0
-200 -330 0
-241 -261 0
-242 -262 0
-243 -263 0
-244 -264 0
-245 -265 0
-246 -266 0
-247 -267 0
-248 -268 0
-249 -269 0
-250 -270 0
-71 -91 0
-72 -92 0
-73 -93 0
-74 -94 0
-75 -95 0
-76 -96 0
-77 -97 0
-78 -98 0
-79 -99 0
-80 -100 0
-211 -351 0
-212 -352 0
-213 -353 0
-214 -354 0
-215 -355 0
-216 -356 0
-217 -357 0
-218 -358 0
-219 -359 0
-220 -360 0
-201 -331 0
-202 -332 0
-203 -333 0
-204 -334 0
-205 -335 0
-206 -336 0
-207 -337 0
-208 -338 0
-209 -339 0
-210 -340 0
-1 -291 0
-2 -292 0
-3 -293 0
-4 -294 0
-5 -295 0
-6 -296 0
-7 -297 0
-8 -298 0
-9 -299 0
-10 -300 0
-211 -301 0
-212 -302 0
-213 -303 0
-214 -304 0
-215 -305 0
-216 -306 0
-217 -307 0
-218 -308 0
-219 -309 0
-220 -310 0
-221 -301 0
-222 -302 0
-223 -303 0
-224 -304 0
-225 -305 0
-226 -306 0
-227 -307 0
-228 -308 0
-229 -309 0
-230 -310 0
-181 -321 0
-182 -322 0
-183 -323 0
-184 -324 0
-185 -325 0
-186 -326 0
-187 -327 0
-188 -328 0
-189 -329 0
-190 -330 0
-81 -141 0
-82 -142 0
-83 -143 0
-84 -144 0
-85 -145 0
-86 -146 0
-87 -147 0
-88 -148 0
-89 -149 0
-90 -150 0
-231 -331 0
-232 -332 0
-233 -333 0
-234 -334 0
-235 -335 0
-236 -336 0
-237 -337 0
-238 -338 0
-239 -339 0
-240 -340 0
-221 -351 0
-222 -352 0
-223 -353 0
-224 -354 0
-225 -355 0
-226 -356 0
-227 -357 0
-228 -358 0
-229 -359 0
-230 -360 0
-251 -321 0
-252 -322 0
-253 -323 0
-254 -324 0
-255 -325 0
-256 -326 0
-257 -327 0
-258 -328 0
-259 -329 0
-260 -330 0
-241 -321 0
-242 -322 0
-243 -323 0
-244 -324 0
-245 -325 0
-246 -326 0
-247 -327 0
-248 -328 0
-249 -329 0
-250 -330 0
-1 -121 0
-2 -122 0
-3 -123 0
-4 -124 0
-5 -125 0
-6 -126 0
-7 -127 0
-8 -128 0
-9 -129 0
-10 -130 0
-261 -331 0
-262 -332 0
-263 -333 0
-264 -334 0
-265 -335 0
-266 -336 0
-267 -337 0
-268 -338 0
-269 -339 0
-270 -340 0
-1 -261 0
-2 -262 0
-3 -263 0
-4 -264 0
-5 -265 0
-6 -266 0
-7 -267 0
-8 -268 0
-9 -269 0
-10 -270 0
-361 -391 0
-362 -392 0
-363 -393 0
-364 -394 0
-365 -395 0
-366 -396 0
-367 -397 0
-368 -398 0
-369 -399 0
-370 -400 0
-1 -71 0
-2 -72 0
-3 -73 0
-4 -74 0
-5 -75 0
-6 -76 0
-7 -77 0
-8 -78 0
-9 -79 0
-10 -80 0
-191 -291 0
-192 -292 0
-193 -293 0
-194 -294 0
-195 -295 0
-196 -296 0
-197 -297 0
-198 -298 0
-199 -299 0
-200 -300 0
-201 -281 0
-202 -282 0
-203 -283 0
-204 -284 0
-205 -285 0
-206 -286 0
-207 -287 0
-208 -288 0
-209 -289 0
-210 -290 0
-81 -91 0
-82 -92 0
-83 -93 0
-84 -94 0
-85 -95 0
-86 -96 0
-87 -97 0
-88 -98 0
-89 -99 0
-90 -100 0
-151 -161 0
-152 -162 0
-153 -163 0
-154 -164 0
-155 -165 0
-156 -166 0
-157 -167 0
-158 -168 0
-159 -169 0
-160 -170 0
-221 -291 0
-222 -292 0
-223 -293 0
-224 -294 0
-225 -295 0
-226 -296 0
-227 -297 0
-228 -298 0
-229 -299 0
-230 -300 0
-1 -301 0
-2 -302 0
-3 -303 0
-4 -304 0
-5 -305 0
-6 -306 0
-7 -307 0
-8 -308 0
-9 -309 0
-10 -310 0
-181 -291 0
-182 -292 0
-183 -293 0
-184 -294 0
-185 -295 0
-186 -296 0
-187 -297 0
-188 -298 0
-189 -299 0
-190 -300 0
-81 -131 0
-82 -132 0
-83 -133 0
-84 -134 0
-85 -135 0
-86 -136 0
-87 -137 0
-88 -138 0
-89 -139 0
-90 -140 0
-231 -301 0
-232 -302 0
-233 -303 0
-234 -304 0
-235 -305 0
-236 -306 0
-237 -307 0
-238 -308 0
-239 -309 0
-240 -310 0
-261 -351 0
-262 -352 0
-263 -353 0
-264 -354 0
-265 -355 0
-266 -356 0
-267 -357 0
-268 -358 0
-269 -359 0
-270 -360 0
-251 -291 0
-252 -292 0
-253 -293 0
-254 -294 0
-255 -295 0
-256 -296 0
-257 -297 0
-258 -298 0
-259 -299 0
-260 -300 0
-241 -351 0
-242 -352 0
-243 -353 0
-244 -354 0
-245 -355 0
-246 -356 0
-247 -357 0
-248 -358 0
-249 -359 0
-250 -360 0
-1 -171 0
-2 -172 0
-3 -173 0
-4 -174 0
-5 -175 0
-6 -176 0
-7 -177 0
-8 -178 0
-9 -179 0
-10 -180 0
-1 -111 0
-2 -112 0
-3 -113 0
-4 -114 0
-5 -115 0
-6 -116 0
-7 -117 0
-8 -118 0
-9 -119 0
-10 -120 0
-201 -341 0
-202 -342 0
-203 -343 0
-204 -344 0
-205 -345 0
-206 -346 0
-207 -347 0
-208 -348 0
-209 -349 0
-210 -350 0
-191 -271 0
-192 -272 0
-193 -273 0
-194 -274 0
-195 -275 0
-196 -276 0
-197 -277 0
-198 -278 0
-199 -279 0
-200 -280 0
